120
150
42
52
56
44
60
48
53
49
58
47
55
53
53
46
56
42
47
55
48
52
53
53
49
51
54
48
50
45
58
58
43
45
47
42
51
49
50
57
45
58
52
54
48
53
58
58
59
46
42
55
45
53
50
59
56
41
49
52
43
51
42
50
45
47
53
47
54
54
50
53
47
54
40
43
53
52
51
49
59
47
58
49
51
59
53
52
47
52
42
58
58
41
51
50
43
53
48
42
54
58
40
52
48
53
47
45
44
56
53
51
40
45
58
54
47
43
53
43
48
50
